p cnf 19 40
a 13 7 0
e 1 2 3 4 5 6 8 9 10 11 12 14 15 16 17 18 19 0
3 1 0
3 2 0
-1 -2 -3 0
5 4 0
5 1 0
-4 -1 -5 0
-6 -3 0
-6 5 0
3 -5 6 0
7 8 -9 0
-7 -8 -9 0
7 -8 9 0
-7 8 9 0
-10 6 0
-10 -9 0
-6 9 10 0
-4 -11 0
4 -11 0
14 -12 0
14 -13 0
12 13 -14 0
-15 -11 0
-15 14 0
11 -14 15 0
-16 8 -17 0
16 -8 -17 0
-16 -8 17 0
16 8 17 0
-18 -15 0
-18 17 0
15 -17 18 0
-10 -18 -19 0
10 18 -19 0
-10 18 19 0
10 -18 19 0
14 9 -2 12 0
-6 -15 -10 13 0
1 5 -3 17 -11 0
19 14 3 0
19 0
